; Property from "Productive Use of Failure in Inductive Proof",
; Andrew Ireland and Alan Bundy, JAR 1996
(declare-datatypes (a)
  ((list (nil) (cons (head a) (tail (list a))))))
(declare-datatypes () ((Nat (Z) (S (p Nat)))))
(define-fun-rec
  plus
    ((x Nat) (y Nat)) Nat
    (match x
      (case Z y)
      (case (S z) (S (plus z y)))))
(define-fun-rec
  (par (a)
    (length
       ((x (list a))) Nat
       (match x
         (case nil Z)
         (case (cons y xs) (S (length xs)))))))
(define-fun-rec
  (par (a)
    (append
       ((x (list a)) (y (list a))) (list a)
       (match x
         (case nil y)
         (case (cons z xs) (cons z (append xs y)))))))
(define-fun-rec
  (par (a)
    (rev
       ((x (list a))) (list a)
       (match x
         (case nil (as nil (list a)))
         (case (cons y xs) (append (rev xs) (cons y (as nil (list a)))))))))
(assert-not
  (par (a)
    (forall ((x (list a)) (y (list a)))
      (= (length (rev (append x y))) (plus (length x) (length y))))))
(check-sat)
